c WARNING: for repeatability, setting FPU to use double precision
d VARIABLES            226086       
d CONSTRAINTS          838272       
c ============================[ Problem Statistics ]=============================
c |                                                                             |
c |  Number of variables:        226086                                         |
c |  Number of clauses:          838272                                         |
c |  Parse time:                   0.15 s                                       |
c |                                                                             |
c ============================[ Search Statistics ]==============================
c | Conflicts |          ORIGINAL         |          LEARNT          | Progress |
c |           |    Vars  Clauses Literals |    Limit  Clauses Lit/Cl |          |
c ===============================================================================
c |       100 |  187450   738642  1852121 |   270835       99     70 | 17.089 % |
c |       250 |  187450   738642  1852121 |   297918      249     39 | 17.089 % |
c |       475 |  187450   738642  1852121 |   327710      474     53 | 17.089 % |
c |       812 |  187450   738642  1852121 |   360481      811     39 | 17.089 % |
c |      1318 |  187450   738640  1852116 |   396530     1317     39 | 17.089 % |
c |      2077 |  187450   738640  1852116 |   436183     2076     32 | 17.089 % |
c |      3216 |  187450   738640  1852116 |   479801     3215     40 | 17.089 % |
c |      4924 |  187450   738640  1852116 |   527781     4923     42 | 17.089 % |
c |      7486 |  187450   738640  1852116 |   580559     7485     43 | 17.089 % |
c |     11330 |  187450   738640  1852116 |   638615    11329     52 | 17.089 % |
c |     17096 |  187450   738640  1852116 |   702477    17095     54 | 17.089 % |
c |     25745 |  187450   738640  1852116 |   772725    25744     63 | 17.089 % |
c |     38719 |  187390   738400  1851516 |   849997    29338     60 | 17.116 % |
c |     58180 |  187390   738400  1851516 |   934997    48799     59 | 17.116 % |
c |     87372 |  187390   738400  1851516 |  1028496    77991     52 | 17.116 % |
c |    131161 |  186993   734056  1840272 |  1131346    79917     50 | 17.291 % |
c ===============================================================================
c restarts              : 362
c conflicts             : 131878         (3672 /sec)
c decisions             : 292577         (0.00 % random) (8147 /sec)
c propagations          : 184117654      (5126591 /sec)
c conflict literals     : 6510233        (53.80 % deleted)
d RESTARTS             362
d FAILURES             131878       
d NODES                292577       
d BACKTRACKS           292577       
d PROPAGATIONS         184117654    
d NOGOODSIZE           49.37 
d MEMORY               134.00 
d TIME                 35.9142 

s UNSATISFIABLE
